# 22437
param k := 6;
param n := 60;
param s := 1;
set E :=  (0,17) (1,47) (2,11) (2,49) (3,8) (3,27) (4,14) (4,16) (4,18) (4,29) (4,36) (5,18) (6,15) (6,43) (6,58) (7,25) (7,52) (9,38) (9,49) (10,52) (11,54) (12,55) (13,41) (13,43) (14,32) (14,54) (16,59) (17,20) (17,30) (17,55) (19,54) (20,25) (21,23) (21,27) (22,42) (23,31) (23,38) (24,58) (25,47) (25,51) (26,49) (27,50) (28,59) (29,40) (29,46) (30,44) (31,33) (34,44) (35,52) (36,39) (36,45) (37,48) (37,58) (42,58) (43,49) (43,57) (47,56) (51,57) (53,56);